t = [
[0,1,0.8,0.6,0.6],
[0.8,0,0.8,1.4,0.9],
[1.4,0.9,0,1,0.9],       
[1.4,1.1,1.7,0,1.2],
[0.7,3.1,1.7,0.3,0]
];

d = [
[0,39,73.5,40.9,51.2],
[39,0,74.9,78.3,81],
[73.5,74.9,0,77.8,56.9],
[40.9,78.3,77.8,0,25.7],
[51.2,81,56.9,25.7,0]
];